6,3	0,0	16,1	14,5	0,0	0,0	0,0	0,0	0,0	6,2
15,9	14,7	0,0	9,2	5,2	0,0	0,0	13,8	0,0	0,0
0,0	0,0	18,3	0,0	13,9	9,9	0,0	0,0	13,5	0,0
8,1	0,0	16,5	0,0	0,0	0,0	15,7	0,0	0,0	0,0
0,0	9,8	0,0	8,9	7,1	0,0	0,0	12,0	0,0	0,0
0,0	9,9	10,0	0,0	16,5	9,4	0,0	0,0	7,9	0,0
0,0	16,4	0,0	19,3	0,0	0,0	8,2	0,0	0,0	10,5
18,3	0,0	15,7	0,0	0,0	0,0	0,0	0,0	0,0	15,7
0,0	14,6	0,0	18,8	17,5	0,0	0,0	15,2	0,0	0,0
0,0	0,0	5,6	0,0	0,0	6,9	10,2	0,0	0,0	5,5
									
4,1	3,9	2,9	3,9	3,7	3,0	4,4	3,5	3,0	3,4
